\ Model AllocationEtudiant_2
\ LP format - for model browsing. Use MPS format to capture full model detail.
Maximize
  uti_min
Subject To
 assigne_0: x[0,0] + x[0,1] + x[0,2] + x[0,3] + x[0,4] + x[0,5] + x[0,6]
   + x[0,7] + x[0,8] = 1
 assigne_1: x[1,0] + x[1,1] + x[1,2] + x[1,3] + x[1,4] + x[1,5] + x[1,6]
   + x[1,7] + x[1,8] = 1
 assigne_2: x[2,0] + x[2,1] + x[2,2] + x[2,3] + x[2,4] + x[2,5] + x[2,6]
   + x[2,7] + x[2,8] = 1
 assigne_3: x[3,0] + x[3,1] + x[3,2] + x[3,3] + x[3,4] + x[3,5] + x[3,6]
   + x[3,7] + x[3,8] = 1
 assigne_4: x[4,0] + x[4,1] + x[4,2] + x[4,3] + x[4,4] + x[4,5] + x[4,6]
   + x[4,7] + x[4,8] = 1
 assigne_5: x[5,0] + x[5,1] + x[5,2] + x[5,3] + x[5,4] + x[5,5] + x[5,6]
   + x[5,7] + x[5,8] = 1
 assigne_6: x[6,0] + x[6,1] + x[6,2] + x[6,3] + x[6,4] + x[6,5] + x[6,6]
   + x[6,7] + x[6,8] = 1
 assigne_7: x[7,0] + x[7,1] + x[7,2] + x[7,3] + x[7,4] + x[7,5] + x[7,6]
   + x[7,7] + x[7,8] = 1
 assigne_8: x[8,0] + x[8,1] + x[8,2] + x[8,3] + x[8,4] + x[8,5] + x[8,6]
   + x[8,7] + x[8,8] = 1
 assigne_9: x[9,0] + x[9,1] + x[9,2] + x[9,3] + x[9,4] + x[9,5] + x[9,6]
   + x[9,7] + x[9,8] = 1
 assigne_10: x[10,0] + x[10,1] + x[10,2] + x[10,3] + x[10,4] + x[10,5]
   + x[10,6] + x[10,7] + x[10,8] = 1
 capacite_0: x[0,0] + x[1,0] + x[2,0] + x[3,0] + x[4,0] + x[5,0] + x[6,0]
   + x[7,0] + x[8,0] + x[9,0] + x[10,0] = 2
 capacite_1: x[0,1] + x[1,1] + x[2,1] + x[3,1] + x[4,1] + x[5,1] + x[6,1]
   + x[7,1] + x[8,1] + x[9,1] + x[10,1] = 1
 capacite_2: x[0,2] + x[1,2] + x[2,2] + x[3,2] + x[4,2] + x[5,2] + x[6,2]
   + x[7,2] + x[8,2] + x[9,2] + x[10,2] = 1
 capacite_3: x[0,3] + x[1,3] + x[2,3] + x[3,3] + x[4,3] + x[5,3] + x[6,3]
   + x[7,3] + x[8,3] + x[9,3] + x[10,3] = 1
 capacite_4: x[0,4] + x[1,4] + x[2,4] + x[3,4] + x[4,4] + x[5,4] + x[6,4]
   + x[7,4] + x[8,4] + x[9,4] + x[10,4] = 1
 capacite_5: x[0,5] + x[1,5] + x[2,5] + x[3,5] + x[4,5] + x[5,5] + x[6,5]
   + x[7,5] + x[8,5] + x[9,5] + x[10,5] = 1
 capacite_6: x[0,6] + x[1,6] + x[2,6] + x[3,6] + x[4,6] + x[5,6] + x[6,6]
   + x[7,6] + x[8,6] + x[9,6] + x[10,6] = 1
 capacite_7: x[0,7] + x[1,7] + x[2,7] + x[3,7] + x[4,7] + x[5,7] + x[6,7]
   + x[7,7] + x[8,7] + x[9,7] + x[10,7] = 1
 capacite_8: x[0,8] + x[1,8] + x[2,8] + x[3,8] + x[4,8] + x[5,8] + x[6,8]
   + x[7,8] + x[8,8] + x[9,8] + x[10,8] = 2
 preference_0: x[0,3] + x[0,5] + x[0,6] + x[0,7] + x[0,8] = 1
 preference_1: x[1,0] + x[1,4] + x[1,5] + x[1,6] + x[1,7] = 1
 preference_2: x[2,0] + x[2,2] + x[2,4] + x[2,7] + x[2,8] = 1
 preference_3: x[3,0] + x[3,5] + x[3,6] + x[3,7] + x[3,8] = 1
 preference_4: x[4,0] + x[4,1] + x[4,5] + x[4,6] + x[4,7] = 1
 preference_5: x[5,0] + x[5,2] + x[5,4] + x[5,7] + x[5,8] = 1
 preference_6: x[6,2] + x[6,5] + x[6,6] + x[6,7] + x[6,8] = 1
 preference_7: x[7,0] + x[7,2] + x[7,4] + x[7,7] + x[7,8] = 1
 preference_8: x[8,2] + x[8,5] + x[8,6] + x[8,7] + x[8,8] = 1
 preference_9: x[9,2] + x[9,3] + x[9,5] + x[9,6] + x[9,8] = 1
 preference_10: x[10,0] + x[10,3] + x[10,4] + x[10,6] + x[10,8] = 1
 umin_0: 2 x[0,0] + x[0,1] + 3 x[0,2] + 4 x[0,3] + 8 x[0,5] + 6 x[0,6]
   + 7 x[0,7] + 5 x[0,8] - uti_min >= 0
 umin_1: 6 x[1,0] + 3 x[1,2] + x[1,3] + 5 x[1,4] + 7 x[1,5] + 8 x[1,6]
   + 4 x[1,7] + 2 x[1,8] - uti_min >= 0
 umin_2: 7 x[2,0] + 2 x[2,1] + 5 x[2,2] + 3 x[2,3] + 8 x[2,4] + x[2,6]
   + 6 x[2,7] + 4 x[2,8] - uti_min >= 0
 umin_3: 5 x[3,0] + x[3,1] + 2 x[3,3] + 3 x[3,4] + 7 x[3,5] + 8 x[3,6]
   + 6 x[3,7] + 4 x[3,8] - uti_min >= 0
 umin_4: 4 x[4,0] + 8 x[4,1] + 3 x[4,2] + 2 x[4,4] + 5 x[4,5] + 7 x[4,6]
   + 6 x[4,7] + x[4,8] - uti_min >= 0
 umin_5: 8 x[5,0] + 2 x[5,1] + 5 x[5,2] + 3 x[5,3] + 6 x[5,4] + x[5,6]
   + 7 x[5,7] + 4 x[5,8] - uti_min >= 0
 umin_6: 2 x[6,0] + x[6,1] + 5 x[6,2] + 3 x[6,3] + 8 x[6,5] + 6 x[6,6]
   + 7 x[6,7] + 4 x[6,8] - uti_min >= 0
 umin_7: 7 x[7,0] + 2 x[7,1] + 5 x[7,2] + 3 x[7,3] + 6 x[7,4] + x[7,6]
   + 8 x[7,7] + 4 x[7,8] - uti_min >= 0
 umin_8: 2 x[8,0] + x[8,1] + 5 x[8,2] + 3 x[8,3] + 8 x[8,5] + 6 x[8,6]
   + 7 x[8,7] + 4 x[8,8] - uti_min >= 0
 umin_9: 3 x[9,1] + 8 x[9,2] + 4 x[9,3] + 2 x[9,4] + 6 x[9,5] + 7 x[9,6]
   + x[9,7] + 5 x[9,8] - uti_min >= 0
 umin_10: 6 x[10,0] + 3 x[10,1] + x[10,2] + 4 x[10,3] + 7 x[10,4]
   + 2 x[10,5] + 8 x[10,6] + 5 x[10,8] - uti_min >= 0
Bounds
Binaries
 x[0,0] x[0,1] x[0,2] x[0,3] x[0,4] x[0,5] x[0,6] x[0,7] x[0,8] x[1,0]
 x[1,1] x[1,2] x[1,3] x[1,4] x[1,5] x[1,6] x[1,7] x[1,8] x[2,0] x[2,1]
 x[2,2] x[2,3] x[2,4] x[2,5] x[2,6] x[2,7] x[2,8] x[3,0] x[3,1] x[3,2]
 x[3,3] x[3,4] x[3,5] x[3,6] x[3,7] x[3,8] x[4,0] x[4,1] x[4,2] x[4,3]
 x[4,4] x[4,5] x[4,6] x[4,7] x[4,8] x[5,0] x[5,1] x[5,2] x[5,3] x[5,4]
 x[5,5] x[5,6] x[5,7] x[5,8] x[6,0] x[6,1] x[6,2] x[6,3] x[6,4] x[6,5]
 x[6,6] x[6,7] x[6,8] x[7,0] x[7,1] x[7,2] x[7,3] x[7,4] x[7,5] x[7,6]
 x[7,7] x[7,8] x[8,0] x[8,1] x[8,2] x[8,3] x[8,4] x[8,5] x[8,6] x[8,7]
 x[8,8] x[9,0] x[9,1] x[9,2] x[9,3] x[9,4] x[9,5] x[9,6] x[9,7] x[9,8]
 x[10,0] x[10,1] x[10,2] x[10,3] x[10,4] x[10,5] x[10,6] x[10,7] x[10,8]
Generals
 uti_min
End
